n_machines = 10;
n_resources = 17;
n_jobs = 85;
horizon = 4363;
LB = 436;
n_jobs_per_resource = [5, 5, 5, 5, 5, 5, 5, 5, 5, 5, 5, 5, 5, 5, 5, 5, 5];
duration = [98, 2, 45, 19, 24, 44, 84, 44, 47, 62, 86, 81, 91, 16, 23, 33, 53, 75, 90, 30, 70, 39, 62, 57, 29, 57, 51, 75, 49, 28, 31, 10, 52, 40, 12, 52, 82, 69, 46, 76, 54, 62, 93, 16, 52, 38, 53, 66, 31, 33, 31, 83, 1, 83, 2, 18, 50, 78, 75, 70, 50, 70, 17, 77, 44, 46, 80, 24, 78, 45, 32, 31, 36, 23, 99, 46, 45, 77, 60, 97, 64, 84, 13, 11, 91]